Translating instance to solver...

GLPSOL--GLPK LP/MIP Solver 5.0
Parameter(s) specified in the command line:
 --tmlim 28800 --mipgap 0.0 --write /tmp/tmpufcc_50_.glpk.raw --wglp /tmp/tmpw86k9nj3.glpk.glp
 --cpxlp /tmp/tmp7auklt24.pyomo.lp
Reading problem data from '/tmp/tmp7auklt24.pyomo.lp'...
/tmp/tmp7auklt24.pyomo.lp:415419: warning: lower bound of variable 'x2' redefined
/tmp/tmp7auklt24.pyomo.lp:415419: warning: upper bound of variable 'x2' redefined
66446 rows, 46282 columns, 169666 non-zeros
46282 integer variables, 46240 of which are binary
461659 lines were read
Writing problem data to '/tmp/tmpw86k9nj3.glpk.glp'...
311400 lines were written
GLPK Integer Optimizer 5.0
66446 rows, 46282 columns, 169666 non-zeros
46282 integer variables, 46240 of which are binary
Preprocessing...
360 hidden packing inequaliti(es) were detected
6600 hidden covering inequaliti(es) were detected
234 constraint coefficient(s) were reduced
24591 rows, 10592 columns, 61677 non-zeros
10592 integer variables, 10551 of which are binary
Scaling...
 A: min|aij| =  1.000e+00  max|aij| =  4.100e+01  ratio =  4.100e+01
GM: min|aij| =  5.638e-01  max|aij| =  1.774e+00  ratio =  3.146e+00
EQ: min|aij| =  3.247e-01  max|aij| =  1.000e+00  ratio =  3.080e+00
2N: min|aij| =  2.500e-01  max|aij| =  1.375e+00  ratio =  5.500e+00
Constructing initial basis...
Size of triangular part is 24591
Solving LP relaxation...
GLPK Simplex Optimizer 5.0
24591 rows, 10592 columns, 61677 non-zeros
      0: obj =   0.000000000e+00 inf =   1.616e+02 (285)
Perturbing LP to avoid stalling [200]...
   1805: obj =   7.526559630e+00 inf =   1.006e-06 (0) 10
Removing LP perturbation [3296]...
*  3296: obj =   7.242820000e-01 inf =   2.763e-13 (0) 12
OPTIMAL LP SOLUTION FOUND
Integer optimization begins...
Long-step dual simplex will be used
+  3296: mip =     not found yet >=              -inf        (1; 0)
+  5082: mip =     not found yet >=   7.242820000e-01        (24; 1)
+  6476: mip =     not found yet >=   7.242820000e-01        (69; 7)
+  9289: mip =     not found yet >=   7.242820000e-01        (89; 11)
+ 11392: mip =     not found yet >=   7.242820000e-01        (118; 13)
+ 13207: mip =     not found yet >=   7.242820000e-01        (156; 17)
+ 15174: mip =     not found yet >=   7.242820000e-01        (193; 21)
+ 17276: mip =     not found yet >=   7.242820000e-01        (228; 24)
+ 19289: mip =     not found yet >=   7.242820000e-01        (247; 25)
+ 20307: mip =     not found yet >=   7.242820000e-01        (257; 26)
+ 22360: mip =     not found yet >=   7.242820000e-01        (287; 28)
+ 24826: mip =     not found yet >=   7.242820000e-01        (327; 30)
Time used: 60.0 secs.  Memory used: 59.3 Mb.
+ 26192: mip =     not found yet >=   7.242820000e-01        (383; 31)
+ 28586: mip =     not found yet >=   7.242820000e-01        (422; 34)
+ 31152: mip =     not found yet >=   7.242820000e-01        (455; 39)
+ 32542: mip =     not found yet >=   7.242820000e-01        (502; 42)
+ 35054: mip =     not found yet >=   7.242820000e-01        (544; 47)
+ 36711: mip =     not found yet >=   7.242820000e-01        (584; 49)
+ 38336: mip =     not found yet >=   7.242820000e-01        (634; 53)
+ 40036: mip =     not found yet >=   7.242820000e-01        (703; 55)
+ 42413: mip =     not found yet >=   7.242820000e-01        (739; 56)
+ 44801: mip =     not found yet >=   7.242820000e-01        (774; 59)
+ 46332: mip =     not found yet >=   7.242820000e-01        (848; 63)
+ 48283: mip =     not found yet >=   7.242820000e-01        (889; 66)
Time used: 120.1 secs.  Memory used: 69.7 Mb.
+ 49275: mip =     not found yet >=   7.242820000e-01        (934; 68)
+ 51508: mip =     not found yet >=   7.242820000e-01        (968; 70)
+ 53317: mip =     not found yet >=   7.242820000e-01        (1020; 75)
+ 55759: mip =     not found yet >=   7.242820000e-01        (1077; 78)
+ 57030: >>>>>   1.061782000e+00 >=   7.242820000e-01  31.8% (1093; 80)
+ 59149: mip =   1.061782000e+00 >=   7.242820000e-01  31.8% (254; 1742)
+ 61967: mip =   1.061782000e+00 >=   7.242820000e-01  31.8% (271; 1752)
+ 64075: mip =   1.061782000e+00 >=   7.242820000e-01  31.8% (291; 1755)
+ 66460: mip =   1.061782000e+00 >=   7.242820000e-01  31.8% (312; 1765)
+ 68332: mip =   1.061782000e+00 >=   7.242820000e-01  31.8% (340; 1772)
+ 70612: mip =   1.061782000e+00 >=   7.242820000e-01  31.8% (354; 1784)
+ 72904: mip =   1.061782000e+00 >=   7.242820000e-01  31.8% (371; 1794)
+ 74653: mip =   1.061782000e+00 >=   7.242820000e-01  31.8% (399; 1798)
Time used: 180.3 secs.  Memory used: 75.9 Mb.
+ 77384: mip =   1.061782000e+00 >=   7.242820000e-01  31.8% (423; 1809)
+ 79373: mip =   1.061782000e+00 >=   7.242820000e-01  31.8% (445; 1815)
+ 81864: mip =   1.061782000e+00 >=   7.242820000e-01  31.8% (466; 1826)
+ 83709: mip =   1.061782000e+00 >=   7.242820000e-01  31.8% (487; 1832)
+ 86132: mip =   1.061782000e+00 >=   7.242820000e-01  31.8% (507; 1840)
+ 88624: mip =   1.061782000e+00 >=   7.242820000e-01  31.8% (526; 1847)
+ 90819: mip =   1.061782000e+00 >=   7.242820000e-01  31.8% (551; 1853)
+ 93223: mip =   1.061782000e+00 >=   7.242820000e-01  31.8% (570; 1861)
+ 94747: mip =   1.061782000e+00 >=   7.242820000e-01  31.8% (598; 1864)
+ 97962: mip =   1.061782000e+00 >=   7.242820000e-01  31.8% (614; 1874)
+100750: mip =   1.061782000e+00 >=   7.257060506e-01  31.7% (632; 1881)
Time used: 240.3 secs.  Memory used: 93.0 Mb.
+103988: mip =   1.061782000e+00 >=   7.271666154e-01  31.5% (647; 1892)
+106751: mip =   1.061782000e+00 >=   7.271666154e-01  31.5% (663; 1900)
+109017: mip =   1.061782000e+00 >=   7.271666154e-01  31.5% (687; 1908)
+111954: mip =   1.061782000e+00 >=   7.271666154e-01  31.5% (712; 1921)
+114136: mip =   1.061782000e+00 >=   7.271666154e-01  31.5% (740; 1929)
+116959: mip =   1.061782000e+00 >=   7.271666154e-01  31.5% (764; 1934)
+119164: mip =   1.061782000e+00 >=   7.271666154e-01  31.5% (786; 1945)
+121789: mip =   1.061782000e+00 >=   7.271666154e-01  31.5% (797; 1964)
+123773: mip =   1.061782000e+00 >=   7.271666154e-01  31.5% (820; 1974)
+125964: mip =   1.061782000e+00 >=   7.271666154e-01  31.5% (847; 1981)
+128491: mip =   1.061782000e+00 >=   7.271666154e-01  31.5% (873; 1986)
+130640: mip =   1.061782000e+00 >=   7.271666154e-01  31.5% (897; 1989)
Time used: 300.3 secs.  Memory used: 104.1 Mb.
+133277: mip =   1.061782000e+00 >=   7.271666154e-01  31.5% (919; 1994)
+135434: mip =   1.061782000e+00 >=   7.271666154e-01  31.5% (943; 1997)
+138304: mip =   1.061782000e+00 >=   7.271666154e-01  31.5% (954; 2003)
+141742: mip =   1.061782000e+00 >=   7.271666154e-01  31.5% (972; 2010)
+145091: mip =   1.061782000e+00 >=   7.271666154e-01  31.5% (992; 2014)
+147759: mip =   1.061782000e+00 >=   7.296391429e-01  31.3% (1006; 2023)
+150839: mip =   1.061782000e+00 >=   7.302030526e-01  31.2% (1022; 2034)
+154101: mip =   1.061782000e+00 >=   7.306499245e-01  31.2% (1038; 2043)
+156377: mip =   1.061782000e+00 >=   7.322365455e-01  31.0% (1052; 2055)
+158505: mip =   1.061782000e+00 >=   7.334036216e-01  30.9% (1067; 2063)
+161208: mip =   1.061782000e+00 >=   7.351469610e-01  30.8% (1079; 2072)
+164578: mip =   1.061782000e+00 >=   7.387050769e-01  30.4% (1081; 2089)
Time used: 360.3 secs.  Memory used: 117.2 Mb.
+167723: mip =   1.061782000e+00 >=   7.441349412e-01  29.9% (1092; 2100)
+169459: mip =   1.061782000e+00 >=   7.441349412e-01  29.9% (1116; 2107)
+172058: mip =   1.061782000e+00 >=   7.441349412e-01  29.9% (1136; 2114)
+174053: mip =   1.061782000e+00 >=   7.441349412e-01  29.9% (1161; 2127)
+176022: mip =   1.061782000e+00 >=   7.441349412e-01  29.9% (1179; 2142)
+177784: mip =   1.061782000e+00 >=   7.441349412e-01  29.9% (1204; 2152)
+180298: mip =   1.061782000e+00 >=   7.447365455e-01  29.9% (1215; 2166)
+182182: mip =   1.061782000e+00 >=   7.467820000e-01  29.7% (1241; 2176)
+185048: mip =   1.061782000e+00 >=   7.481456364e-01  29.5% (1254; 2194)
+188114: mip =   1.061782000e+00 >=   7.481456364e-01  29.5% (1278; 2208)
+190232: mip =   1.061782000e+00 >=   7.481456364e-01  29.5% (1311; 2215)
+192814: mip =   1.061782000e+00 >=   7.481456364e-01  29.5% (1329; 2226)
Time used: 420.4 secs.  Memory used: 126.8 Mb.
+195367: mip =   1.061782000e+00 >=   7.481456364e-01  29.5% (1347; 2238)
+197324: mip =   1.061782000e+00 >=   7.481456364e-01  29.5% (1375; 2249)
+199280: mip =   1.061782000e+00 >=   7.481456364e-01  29.5% (1399; 2262)
+201978: mip =   1.061782000e+00 >=   7.481456364e-01  29.5% (1424; 2276)
+205257: mip =   1.061782000e+00 >=   7.481456364e-01  29.5% (1436; 2286)
+207795: mip =   1.061782000e+00 >=   7.481456364e-01  29.5% (1462; 2296)
+209710: mip =   1.061782000e+00 >=   7.481456364e-01  29.5% (1491; 2307)
+211409: mip =   1.061782000e+00 >=   7.481456364e-01  29.5% (1521; 2315)
+213681: mip =   1.061782000e+00 >=   7.481456364e-01  29.5% (1544; 2326)
+216788: mip =   1.061782000e+00 >=   7.484782306e-01  29.5% (1572; 2338)
+220428: mip =   1.061782000e+00 >=   7.502435385e-01  29.3% (1590; 2352)
+222909: mip =   1.061782000e+00 >=   7.524070000e-01  29.1% (1601; 2365)
Time used: 480.5 secs.  Memory used: 133.6 Mb.
+224759: mip =   1.061782000e+00 >=   7.524070000e-01  29.1% (1628; 2375)
+227080: mip =   1.061782000e+00 >=   7.524070000e-01  29.1% (1658; 2393)
+229033: mip =   1.061782000e+00 >=   7.524070000e-01  29.1% (1690; 2403)
+232593: mip =   1.061782000e+00 >=   7.569432903e-01  28.7% (1685; 2432)
+234845: mip =   1.061782000e+00 >=   7.593229836e-01  28.5% (1683; 2470)
+237720: mip =   1.061782000e+00 >=   7.617820000e-01  28.3% (1696; 2489)
+240443: mip =   1.061782000e+00 >=   7.635892289e-01  28.1% (1705; 2508)
+242869: mip =   1.061782000e+00 >=   7.660454694e-01  27.9% (1702; 2528)
+246266: mip =   1.061782000e+00 >=   7.675353478e-01  27.7% (1716; 2541)
+248491: mip =   1.061782000e+00 >=   7.698901081e-01  27.5% (1722; 2560)
+250727: mip =   1.061782000e+00 >=   7.724962857e-01  27.2% (1721; 2582)
+253052: mip =   1.061782000e+00 >=   7.742820000e-01  27.1% (1731; 2604)
Time used: 540.6 secs.  Memory used: 143.7 Mb.
+255790: mip =   1.061782000e+00 >=   7.775714737e-01  26.8% (1735; 2628)
+257417: mip =   1.061782000e+00 >=   7.784486667e-01  26.7% (1760; 2637)
+259480: mip =   1.061782000e+00 >=   7.805320000e-01  26.5% (1784; 2651)
+261811: mip =   1.061782000e+00 >=   7.847948169e-01  26.1% (1791; 2674)
+264933: mip =   1.061782000e+00 >=   7.872057288e-01  25.9% (1807; 2696)
+267065: mip =   1.061782000e+00 >=   7.902541547e-01  25.6% (1810; 2714)
+269479: mip =   1.061782000e+00 >=   7.917560476e-01  25.4% (1839; 2724)
+271893: mip =   1.061782000e+00 >=   7.928797987e-01  25.3% (1854; 2745)
+274002: mip =   1.061782000e+00 >=   7.955574557e-01  25.1% (1873; 2762)
+277023: mip =   1.061782000e+00 >=   7.987830750e-01  24.8% (1874; 2792)
+279162: mip =   1.061782000e+00 >=   8.004916774e-01  24.6% (1877; 2821)
+281452: mip =   1.061782000e+00 >=   8.004916774e-01  24.6% (1868; 2842)
Time used: 600.6 secs.  Memory used: 156.7 Mb.
+284912: mip =   1.061782000e+00 >=   8.021666154e-01  24.5% (1856; 2879)
+288172: mip =   1.061782000e+00 >=   8.056002051e-01  24.1% (1848; 2905)
+290405: mip =   1.061782000e+00 >=   8.072307097e-01  24.0% (1864; 2920)
+292488: mip =   1.061782000e+00 >=   8.097534524e-01  23.7% (1888; 2934)
+294949: mip =   1.061782000e+00 >=   8.141559524e-01  23.3% (1896; 2957)
+297731: mip =   1.061782000e+00 >=   8.199745490e-01  22.8% (1877; 3004)
+300256: mip =   1.061782000e+00 >=   8.224880972e-01  22.5% (1885; 3028)
+303577: mip =   1.061782000e+00 >=   8.284486667e-01  22.0% (1877; 3069)
+305992: mip =   1.061782000e+00 >=   8.330934754e-01  21.5% (1886; 3095)
+307979: mip =   1.061782000e+00 >=   8.367820000e-01  21.2% (1896; 3121)
+309178: mip =   1.061782000e+00 >=   8.367820000e-01  21.2% (1934; 3139)
+311073: mip =   1.061782000e+00 >=   8.367820000e-01  21.2% (1947; 3157)
Time used: 660.7 secs.  Memory used: 166.6 Mb.
+313889: mip =   1.061782000e+00 >=   8.367820000e-01  21.2% (1945; 3181)
+316370: mip =   1.061782000e+00 >=   8.367820000e-01  21.2% (1963; 3200)
+317868: mip =   1.061782000e+00 >=   8.367820000e-01  21.2% (1979; 3222)
+320079: mip =   1.061782000e+00 >=   8.367820000e-01  21.2% (1992; 3256)
+322646: mip =   1.061782000e+00 >=   8.394121304e-01  20.9% (1988; 3300)
+325072: mip =   1.061782000e+00 >=   8.425512308e-01  20.6% (1996; 3331)
+328353: mip =   1.061782000e+00 >=   8.474962857e-01  20.2% (1986; 3369)
+330122: mip =   1.061782000e+00 >=   8.486241053e-01  20.1% (2021; 3384)
+331449: mip =   1.061782000e+00 >=   8.486241053e-01  20.1% (2053; 3402)
+333506: mip =   1.061782000e+00 >=   8.503152636e-01  19.9% (2063; 3435)
+335536: mip =   1.061782000e+00 >=   8.524796744e-01  19.7% (2067; 3462)
Time used: 720.8 secs.  Memory used: 172.9 Mb.
+337492: mip =   1.061782000e+00 >=   8.568767018e-01  19.3% (2075; 3499)
+340320: mip =   1.061782000e+00 >=   8.592820000e-01  19.1% (2056; 3558)
+342492: mip =   1.061782000e+00 >=   8.615494419e-01  18.9% (2060; 3583)
+344830: mip =   1.061782000e+00 >=   8.637456667e-01  18.7% (2057; 3628)
+347384: mip =   1.061782000e+00 >=   8.661298261e-01  18.4% (2045; 3683)
+350608: mip =   1.061782000e+00 >=   8.723083158e-01  17.8% (2019; 3755)
+352688: mip =   1.061782000e+00 >=   8.764878824e-01  17.5% (2016; 3805)
+354406: mip =   1.061782000e+00 >=   8.813051250e-01  17.0% (2017; 3841)
+357262: mip =   1.061782000e+00 >=   8.838750233e-01  16.8% (2012; 3897)
+359340: mip =   1.061782000e+00 >=   8.870839000e-01  16.5% (2007; 3944)
+361644: mip =   1.061782000e+00 >=   8.915117297e-01  16.0% (1995; 4005)
+363693: mip =   1.061782000e+00 >=   8.930320000e-01  15.9% (2013; 4033)
Time used: 780.8 secs.  Memory used: 177.7 Mb.
+365616: mip =   1.061782000e+00 >=   8.964758776e-01  15.6% (2005; 4075)
+368143: mip =   1.061782000e+00 >=   9.012831481e-01  15.1% (1983; 4137)
+371100: mip =   1.061782000e+00 >=   9.060127692e-01  14.7% (1976; 4180)
+373176: mip =   1.061782000e+00 >=   9.117820000e-01  14.1% (1966; 4234)
+375925: mip =   1.061782000e+00 >=   9.117820000e-01  14.1% (1954; 4295)
+378217: mip =   1.061782000e+00 >=   9.122045821e-01  14.1% (1951; 4324)
+380356: mip =   1.061782000e+00 >=   9.166207097e-01  13.7% (1954; 4364)
+383357: mip =   1.061782000e+00 >=   9.176730000e-01  13.6% (1948; 4417)
+386578: mip =   1.061782000e+00 >=   9.176730000e-01  13.6% (1953; 4445)
+390969: mip =   1.061782000e+00 >=   9.206068947e-01  13.3% (1939; 4498)
+392980: mip =   1.061782000e+00 >=   9.265640000e-01  12.7% (1931; 4542)
+396041: mip =   1.061782000e+00 >=   9.292114615e-01  12.5% (1919; 4597)
Time used: 840.9 secs.  Memory used: 185.5 Mb.
+398109: mip =   1.061782000e+00 >=   9.314471316e-01  12.3% (1924; 4627)
+400247: mip =   1.061782000e+00 >=   9.332105714e-01  12.1% (1929; 4671)
+402526: mip =   1.061782000e+00 >=   9.384922549e-01  11.6% (1895; 4752)
+405192: mip =   1.061782000e+00 >=   9.475821667e-01  10.8% (1850; 4845)
+407278: mip =   1.061782000e+00 >=   9.516608889e-01  10.4% (1826; 4922)
+409346: mip =   1.061782000e+00 >=   9.516608889e-01  10.4% (1859; 4943)
+410925: mip =   1.061782000e+00 >=   9.516608889e-01  10.4% (1880; 4971)
+412670: mip =   1.061782000e+00 >=   9.516608889e-01  10.4% (1878; 5035)
+414455: mip =   1.061782000e+00 >=   9.516608889e-01  10.4% (1906; 5064)
+416114: mip =   1.061782000e+00 >=   9.516608889e-01  10.4% (1915; 5106)
+417665: mip =   1.061782000e+00 >=   9.516608889e-01  10.4% (1930; 5146)
+419199: mip =   1.061782000e+00 >=   9.516608889e-01  10.4% (1950; 5178)
Time used: 901.0 secs.  Memory used: 188.7 Mb.
+420834: mip =   1.061782000e+00 >=   9.516608889e-01  10.4% (1964; 5234)
+422085: mip =   1.061782000e+00 >=   9.516608889e-01  10.4% (1992; 5262)
+423548: mip =   1.061782000e+00 >=   9.516608889e-01  10.4% (2029; 5282)
+425045: mip =   1.061782000e+00 >=   9.516608889e-01  10.4% (2051; 5310)
+427333: mip =   1.061782000e+00 >=   9.516608889e-01  10.4% (2070; 5345)
+429299: mip =   1.061782000e+00 >=   9.516608889e-01  10.4% (2093; 5368)
+431803: mip =   1.061782000e+00 >=   9.516608889e-01  10.4% (2110; 5403)
+433983: mip =   1.061782000e+00 >=   9.520753753e-01  10.3% (2119; 5441)
+435816: mip =   1.061782000e+00 >=   9.554675500e-01  10.0% (2102; 5519)
+437152: mip =   1.061782000e+00 >=   9.573321714e-01   9.8% (2107; 5568)
+440057: mip =   1.061782000e+00 >=   9.613717143e-01   9.5% (2057; 5685)
+442065: mip =   1.061782000e+00 >=   9.647331538e-01   9.1% (2018; 5807)
Time used: 961.0 secs.  Memory used: 193.0 Mb.
+443349: mip =   1.061782000e+00 >=   9.676730000e-01   8.9% (2029; 5863)
+444950: mip =   1.061782000e+00 >=   9.686548333e-01   8.8% (2012; 5928)
+446273: mip =   1.061782000e+00 >=   9.700147000e-01   8.6% (2002; 5988)
+448096: mip =   1.061782000e+00 >=   9.735640000e-01   8.3% (1978; 6082)
+450592: mip =   1.061782000e+00 >=   9.788512000e-01   7.8% (1922; 6189)
+451556: mip =   1.061782000e+00 >=   9.788512000e-01   7.8% (1897; 6254)
+454478: mip =   1.061782000e+00 >=   9.846506835e-01   7.3% (1838; 6396)
+457875: mip =   1.061782000e+00 >=   9.856487778e-01   7.2% (1707; 6593)
+460648: mip =   1.061782000e+00 >=   9.863903636e-01   7.1% (1603; 6784)
+464047: mip =   1.061782000e+00 >=   9.941457500e-01   6.4% (1460; 7083)
+466838: mip =   1.061782000e+00 >=   9.962779091e-01   6.2% (1339; 7336)
+469384: mip =   1.061782000e+00 >=   1.002642722e+00   5.6% (1230; 7625)
Time used: 1021.0 secs.  Memory used: 193.0 Mb.
+472725: mip =   1.061782000e+00 >=   1.008307370e+00   5.0% (1111; 7991)
+475915: mip =   1.061782000e+00 >=   1.019636667e+00   4.0% (938; 8469)
+477492: mip =   1.061782000e+00 >=   1.019636667e+00   4.0% (832; 8911)
+479110: mip =   1.061782000e+00 >=   1.020608000e+00   3.9% (803; 9010)
+482314: mip =   1.061782000e+00 >=   1.030173000e+00   3.0% (643; 9558)
+484298: mip =   1.061782000e+00 >=   1.041767430e+00   1.9% (456; 10326)
+486445: mip =   1.061782000e+00 >=   1.048769143e+00   1.2% (266; 11249)
+488467: mip =   1.061782000e+00 >=     tree is empty   0.0% (0; 13349)
INTEGER OPTIMAL SOLUTION FOUND
Time used:   1059.0 secs
Memory used: 199.0 Mb (208649698 bytes)
Writing MIP solution to '/tmp/tmpufcc_50_.glpk.raw'...
112737 lines were written

Time in solver (for this epsilon): 1059.2552542686462 s
Elapsed time (for this epsilon): 1061.0316276550293 s


Total elapsed time since execution of first epsilon: 837326.9151244164 s

Results:

E = 1.061782 mA
C = 32.0 points
C ~= 12.8 km^2

Minimum Epsilon for this instance = 14
Maximum Epsilon for this instance = 280

Current Epsilon = 28


Instance Epsilon Preprocessing Time: 0.016591548919677734 s


Updated solution vectors:
sol_E = [-0.611782,-1.061782]
sol_C = [14.0,32.0]
sol_eps = [14,28]
sol_gap = [0.0,0.0]
